; Automatically generated by map2smt

(set-logic HORN)

(declare-datatypes ((listOfInt 0) )
(((conslistOfInt (headlistOfInt Int) (taillistOfInt listOfInt)) (nillistOfInt))))



(declare-fun append (listOfInt listOfInt listOfInt) Bool)
(declare-fun leq (Int Int Bool) Bool)
(declare-fun len (listOfInt Int) Bool)
(declare-fun rev (listOfInt listOfInt) Bool)
(declare-fun ff () Bool)

(assert
  (forall ( (A listOfInt) )
    (append nillistOfInt A A)
  )
)
(assert
  (forall ( (A Int) (B listOfInt) (C listOfInt) (D listOfInt) )
    (=>
      (append B C D)
      (append (conslistOfInt A B) C (conslistOfInt A D))
    )
  )
)
(assert
  (forall ( (A Int) )
    (=>
      (= A 0)
      (len nillistOfInt A)
    )
  )
)
(assert
  (forall ( (A Int) (B listOfInt) (C Int) (D Int) )
    (=>
      (and
        (= C (+ 1 D))
        (len B D)
      )
      (len (conslistOfInt A B) C)
    )
  )
)
(assert
    (rev nillistOfInt nillistOfInt)
)
(assert
  (forall ( (A Int) (B listOfInt) (C listOfInt) (D listOfInt) )
    (=>
      (and
        (rev B D)
        (append D (conslistOfInt A nillistOfInt) C)
      )
      (rev (conslistOfInt A B) C)
    )
  )
)
(assert
  (forall ( (A Int) (B Int) (C listOfInt) (D listOfInt) )
    (=>
      (and
        (= (- A B) 0)
        (rev C D)
        (len D B)
        (len C A)
      )
      ff
    )
  )
)

(assert (not ff))
(check-sat)
